; SWAP1 SWAP3 SWAP2 DUP4 SWAP2 SWAP1 => DUP2 SWAP4 SWAP3
(set-option :produce-proofs true)
; 
(set-info :status unknown)
(declare-fun storage_t ((_ BitVec 256) (_ BitVec 256) (_ BitVec 256) (_ BitVec 256) Int (_ BitVec 256)) (_ BitVec 256))
(declare-fun storage_s ((_ BitVec 256) (_ BitVec 256) (_ BitVec 256) (_ BitVec 256) Int (_ BitVec 256)) (_ BitVec 256))
(declare-fun exc_halt_t (Int) Bool)
(declare-fun exc_halt_s (Int) Bool)
(declare-fun stack_t ((_ BitVec 256) (_ BitVec 256) (_ BitVec 256) (_ BitVec 256) Int (_ BitVec 6)) (_ BitVec 256))
(declare-fun stack_s ((_ BitVec 256) (_ BitVec 256) (_ BitVec 256) (_ BitVec 256) Int (_ BitVec 6)) (_ BitVec 256))
(declare-fun sc_t (Int) (_ BitVec 6))
(declare-fun sc_s (Int) (_ BitVec 6))
(declare-fun used_gas_t ((_ BitVec 256) (_ BitVec 256) (_ BitVec 256) (_ BitVec 256) Int) Int)
(declare-fun used_gas_s ((_ BitVec 256) (_ BitVec 256) (_ BitVec 256) (_ BitVec 256) Int) Int)
(assert
 (exists ((x_0 (_ BitVec 256)) (x_1 (_ BitVec 256)) (x_2 (_ BitVec 256)) (x_3 (_ BitVec 256)) )(let (($x5595 (forall ((w (_ BitVec 256)) )(let ((?x8437 (storage_t x_0 x_1 x_2 x_3 3 w)))
 (let ((?x9088 (storage_s x_0 x_1 x_2 x_3 6 w)))
 (= ?x9088 ?x8437))))
 ))
 (let (($x6783 (exc_halt_t 3)))
 (let (($x772 (exc_halt_s 6)))
 (let (($x6970 (= $x772 $x6783)))
 (let (($x22 (forall ((n (_ BitVec 6)) )(let ((?x10057 (stack_t x_0 x_1 x_2 x_3 3 n)))
 (let ((?x8978 (stack_s x_0 x_1 x_2 x_3 6 n)))
 (let (($x11308 (= ?x8978 ?x10057)))
 (let ((?x6438 (sc_t 3)))
 (let (($x5122 (bvsle ?x6438 n)))
 (or $x5122 $x11308)))))))
 ))
 (let ((?x6438 (sc_t 3)))
 (let ((?x926 (sc_s 6)))
 (let (($x9708 (= ?x926 ?x6438)))
 (let ((?x3385 (used_gas_t x_0 x_1 x_2 x_3 0)))
 (let ((?x297 (used_gas_s x_0 x_1 x_2 x_3 0)))
 (let (($x8506 (= ?x297 ?x3385)))
 (let (($x7629 (forall ((w (_ BitVec 256)) )(let ((?x5041 (storage_t x_0 x_1 x_2 x_3 0 w)))
 (let ((?x8359 (storage_s x_0 x_1 x_2 x_3 0 w)))
 (= ?x8359 ?x5041))))
 ))
 (let (($x56 (exc_halt_t 0)))
 (let (($x57 (exc_halt_s 0)))
 (let (($x58 (= $x57 $x56)))
 (let (($x10611 (forall ((n (_ BitVec 6)) )(let ((?x63 (sc_t 0)))
 (let (($x10511 (bvsle ?x63 n)))
 (let ((?x1891 (stack_t x_0 x_1 x_2 x_3 0 n)))
 (let ((?x2801 (stack_s x_0 x_1 x_2 x_3 0 n)))
 (let (($x3159 (= ?x2801 ?x1891)))
 (or $x3159 $x10511)))))))
 ))
 (let ((?x63 (sc_t 0)))
 (let ((?x72 (sc_s 0)))
 (let (($x73 (= ?x72 ?x63)))
 (let (($x11441 (= $x6783 (or (exc_halt_t 2) (not (bvsle (_ bv0 6) (bvadd (_ bv60 6) (sc_t 2))))))))
 (let (($x5179 (forall ((w (_ BitVec 256)) )(let ((?x3949 (storage_t x_0 x_1 x_2 x_3 2 w)))
 (let ((?x8437 (storage_t x_0 x_1 x_2 x_3 3 w)))
 (= ?x8437 ?x3949))))
 ))
 (let (($x9395 (forall ((n (_ BitVec 6)) )(let ((?x10427 (stack_t x_0 x_1 x_2 x_3 2 n)))
 (let ((?x10057 (stack_t x_0 x_1 x_2 x_3 3 n)))
 (let (($x3370 (= ?x10057 ?x10427)))
 (let ((?x2714 (sc_t 2)))
 (let ((?x526 (bvadd (_ bv60 6) ?x2714)))
 (let (($x1238 (bvsle ?x526 n)))
 (or $x1238 $x3370))))))))
 ))
 (let ((?x2714 (sc_t 2)))
 (let (($x2845 (= ?x6438 ?x2714)))
 (let ((?x3649 (used_gas_t x_0 x_1 x_2 x_3 3)))
 (let (($x59 (= ?x3649 (+ 3 (used_gas_t x_0 x_1 x_2 x_3 2)))))
 (let ((?x1655 (bvadd (_ bv62 6) ?x2714)))
 (let ((?x1736 (stack_t x_0 x_1 x_2 x_3 2 ?x1655)))
 (let ((?x7023 (bvadd (_ bv62 6) ?x6438)))
 (let ((?x9665 (stack_t x_0 x_1 x_2 x_3 3 ?x7023)))
 (let ((?x5598 (bvadd (_ bv61 6) ?x2714)))
 (let ((?x8284 (stack_t x_0 x_1 x_2 x_3 2 ?x5598)))
 (let ((?x7428 (bvadd (_ bv63 6) ?x2714)))
 (let ((?x5627 (stack_t x_0 x_1 x_2 x_3 2 ?x7428)))
 (let ((?x526 (bvadd (_ bv60 6) ?x2714)))
 (let ((?x4915 (stack_t x_0 x_1 x_2 x_3 2 ?x526)))
 (let ((?x3265 (bvadd (_ bv63 6) ?x6438)))
 (let ((?x4695 (stack_t x_0 x_1 x_2 x_3 3 ?x3265)))
 (let (($x2163 (exc_halt_t 2)))
 (let (($x3493 (= $x2163 (or (exc_halt_t 1) (not (bvsle (_ bv0 6) (bvadd (_ bv59 6) (sc_t 1))))))))
 (let (($x9612 (forall ((w (_ BitVec 256)) )(let ((?x5505 (storage_t x_0 x_1 x_2 x_3 1 w)))
 (let ((?x3949 (storage_t x_0 x_1 x_2 x_3 2 w)))
 (= ?x3949 ?x5505))))
 ))
 (let (($x9297 (forall ((n (_ BitVec 6)) )(let ((?x11065 (stack_t x_0 x_1 x_2 x_3 1 n)))
 (let ((?x10427 (stack_t x_0 x_1 x_2 x_3 2 n)))
 (let (($x6542 (= ?x10427 ?x11065)))
 (or $x6542 (bvsle (bvadd (_ bv59 6) (sc_t 1)) n))))))
 ))
 (let ((?x7154 (sc_t 1)))
 (let (($x9350 (= ?x2714 ?x7154)))
 (let ((?x1539 (used_gas_t x_0 x_1 x_2 x_3 2)))
 (let (($x2263 (= ?x1539 (+ 3 (used_gas_t x_0 x_1 x_2 x_3 1)))))
 (let ((?x960 (bvadd (_ bv63 6) ?x7154)))
 (let ((?x7247 (stack_t x_0 x_1 x_2 x_3 1 ?x960)))
 (let (($x4494 (not (bvsle (_ bv0 6) (bvadd (_ bv62 6) ?x63)))))
 (let (($x4131 (not (= ((_ extract 6 6) (bvadd (_ bv1 7) (concat (_ bv0 1) ?x63))) (_ bv0 1)))))
 (let (($x8377 (exc_halt_t 1)))
 (let (($x11457 (= $x8377 (or $x56 $x4131 $x4494))))
 (let (($x9186 (forall ((w (_ BitVec 256)) )(let ((?x5041 (storage_t x_0 x_1 x_2 x_3 0 w)))
 (let ((?x5505 (storage_t x_0 x_1 x_2 x_3 1 w)))
 (= ?x5505 ?x5041))))
 ))
 (let (($x550 (forall ((n (_ BitVec 6)) )(let ((?x63 (sc_t 0)))
 (let ((?x2945 (bvadd (_ bv62 6) ?x63)))
 (let (($x6905 (bvsle ?x2945 n)))
 (let ((?x1891 (stack_t x_0 x_1 x_2 x_3 0 n)))
 (let ((?x11065 (stack_t x_0 x_1 x_2 x_3 1 n)))
 (let (($x3098 (= ?x11065 ?x1891)))
 (or $x3098 $x6905))))))))
 ))
 (let (($x888 (= ?x7154 (bvadd (_ bv1 6) ?x63))))
 (let ((?x7041 (used_gas_t x_0 x_1 x_2 x_3 1)))
 (let (($x5119 (= ?x7041 (+ 3 ?x3385))))
 (let ((?x7492 (bvadd (_ bv63 6) ?x63)))
 (let ((?x11550 (stack_t x_0 x_1 x_2 x_3 0 ?x7492)))
 (let ((?x2945 (bvadd (_ bv62 6) ?x63)))
 (let ((?x6059 (stack_t x_0 x_1 x_2 x_3 0 ?x2945)))
 (let (($x3884 (= $x772 (or (exc_halt_s 5) (not (bvsle (_ bv0 6) (bvadd (_ bv62 6) (sc_s 5))))))))
 (let (($x3785 (forall ((w (_ BitVec 256)) )(let ((?x6362 (storage_s x_0 x_1 x_2 x_3 5 w)))
 (let ((?x9088 (storage_s x_0 x_1 x_2 x_3 6 w)))
 (= ?x9088 ?x6362))))
 ))
 (let (($x7829 (forall ((n (_ BitVec 6)) )(let ((?x3625 (stack_s x_0 x_1 x_2 x_3 5 n)))
 (let ((?x8978 (stack_s x_0 x_1 x_2 x_3 6 n)))
 (let (($x6074 (= ?x8978 ?x3625)))
 (let ((?x4319 (sc_s 5)))
 (let ((?x10059 (bvadd (_ bv62 6) ?x4319)))
 (let (($x4069 (bvsle ?x10059 n)))
 (or $x4069 $x6074))))))))
 ))
 (let ((?x4319 (sc_s 5)))
 (let (($x2838 (= ?x926 ?x4319)))
 (let (($x7695 (= (used_gas_s x_0 x_1 x_2 x_3 6) (+ 3 (used_gas_s x_0 x_1 x_2 x_3 5)))))
 (let ((?x7641 (bvadd (_ bv63 6) ?x4319)))
 (let ((?x6015 (stack_s x_0 x_1 x_2 x_3 5 ?x7641)))
 (let ((?x3757 (bvadd (_ bv62 6) ?x926)))
 (let ((?x8087 (stack_s x_0 x_1 x_2 x_3 6 ?x3757)))
 (let ((?x10059 (bvadd (_ bv62 6) ?x4319)))
 (let ((?x4251 (stack_s x_0 x_1 x_2 x_3 5 ?x10059)))
 (let ((?x2124 (bvadd (_ bv63 6) ?x926)))
 (let ((?x8062 (stack_s x_0 x_1 x_2 x_3 6 ?x2124)))
 (let (($x11317 (exc_halt_s 5)))
 (let (($x492 (= $x11317 (or (exc_halt_s 4) (not (bvsle (_ bv0 6) (bvadd (_ bv61 6) (sc_s 4))))))))
 (let (($x4454 (forall ((w (_ BitVec 256)) )(let ((?x7851 (storage_s x_0 x_1 x_2 x_3 4 w)))
 (let ((?x6362 (storage_s x_0 x_1 x_2 x_3 5 w)))
 (= ?x6362 ?x7851))))
 ))
 (let (($x10010 (forall ((n (_ BitVec 6)) )(let ((?x9334 (stack_s x_0 x_1 x_2 x_3 4 n)))
 (let ((?x3625 (stack_s x_0 x_1 x_2 x_3 5 n)))
 (let (($x8078 (= ?x3625 ?x9334)))
 (or (bvsle (bvadd (_ bv61 6) (sc_s 4)) n) $x8078)))))
 ))
 (let ((?x4305 (sc_s 4)))
 (let (($x9298 (= ?x4319 ?x4305)))
 (let ((?x10815 (used_gas_s x_0 x_1 x_2 x_3 5)))
 (let (($x8934 (= ?x10815 (+ 3 (used_gas_s x_0 x_1 x_2 x_3 4)))))
 (let ((?x3403 (bvadd (_ bv63 6) ?x4305)))
 (let ((?x6407 (stack_s x_0 x_1 x_2 x_3 4 ?x3403)))
 (let ((?x3225 (bvadd (_ bv61 6) ?x4319)))
 (let ((?x11811 (stack_s x_0 x_1 x_2 x_3 5 ?x3225)))
 (let (($x9630 (not (bvsle (_ bv0 6) (bvadd (_ bv60 6) (sc_s 3))))))
 (let (($x3442 (not (= ((_ extract 6 6) (bvadd (_ bv1 7) (concat (_ bv0 1) (sc_s 3)))) (_ bv0 1)))))
 (let (($x292 (exc_halt_s 3)))
 (let (($x7172 (exc_halt_s 4)))
 (let (($x11290 (forall ((w (_ BitVec 256)) )(let ((?x7867 (storage_s x_0 x_1 x_2 x_3 3 w)))
 (let ((?x7851 (storage_s x_0 x_1 x_2 x_3 4 w)))
 (= ?x7851 ?x7867))))
 ))
 (let (($x8452 (forall ((n (_ BitVec 6)) )(let ((?x7359 (stack_s x_0 x_1 x_2 x_3 3 n)))
 (let ((?x9334 (stack_s x_0 x_1 x_2 x_3 4 n)))
 (or (bvsle (bvadd (_ bv60 6) (sc_s 3)) n) (= ?x9334 ?x7359)))))
 ))
 (let (($x5448 (= ?x4305 (bvadd (_ bv1 6) (sc_s 3)))))
 (let ((?x1591 (used_gas_s x_0 x_1 x_2 x_3 4)))
 (let (($x3688 (= ?x1591 (+ 3 (used_gas_s x_0 x_1 x_2 x_3 3)))))
 (let ((?x275 (sc_s 3)))
 (let ((?x1450 (bvadd (_ bv63 6) ?x275)))
 (let ((?x10702 (stack_s x_0 x_1 x_2 x_3 3 ?x1450)))
 (let ((?x11740 (bvadd (_ bv62 6) ?x275)))
 (let ((?x854 (stack_s x_0 x_1 x_2 x_3 3 ?x11740)))
 (let ((?x5144 (bvadd (_ bv61 6) ?x275)))
 (let ((?x4202 (stack_s x_0 x_1 x_2 x_3 3 ?x5144)))
 (let ((?x9432 (bvadd (_ bv60 6) ?x275)))
 (let ((?x1841 (stack_s x_0 x_1 x_2 x_3 3 ?x9432)))
 (let (($x6794 (= ?x6407 ?x1841)))
 (let (($x10380 (= $x292 (or (exc_halt_s 2) (not (bvsle (_ bv0 6) (bvadd (_ bv61 6) (sc_s 2))))))))
 (let (($x552 (forall ((w (_ BitVec 256)) )(let ((?x2096 (storage_s x_0 x_1 x_2 x_3 2 w)))
 (let ((?x7867 (storage_s x_0 x_1 x_2 x_3 3 w)))
 (= ?x7867 ?x2096))))
 ))
 (let (($x8057 (forall ((n (_ BitVec 6)) )(let ((?x11097 (stack_s x_0 x_1 x_2 x_3 2 n)))
 (let ((?x7359 (stack_s x_0 x_1 x_2 x_3 3 n)))
 (let (($x2223 (= ?x7359 ?x11097)))
 (let ((?x218 (sc_s 2)))
 (let ((?x3692 (bvadd (_ bv61 6) ?x218)))
 (let (($x1555 (bvsle ?x3692 n)))
 (or $x1555 $x2223))))))))
 ))
 (let ((?x7749 (used_gas_s x_0 x_1 x_2 x_3 3)))
 (let ((?x218 (sc_s 2)))
 (let ((?x4346 (bvadd (_ bv62 6) ?x218)))
 (let ((?x3968 (stack_s x_0 x_1 x_2 x_3 2 ?x4346)))
 (let (($x247 (exc_halt_s 2)))
 (let (($x10623 (= $x247 (or (exc_halt_s 1) (not (bvsle (_ bv0 6) (bvadd (_ bv60 6) (sc_s 1))))))))
 (let (($x4959 (forall ((w (_ BitVec 256)) )(let ((?x8598 (storage_s x_0 x_1 x_2 x_3 1 w)))
 (let ((?x2096 (storage_s x_0 x_1 x_2 x_3 2 w)))
 (= ?x2096 ?x8598))))
 ))
 (let (($x5929 (forall ((n (_ BitVec 6)) )(let ((?x1689 (stack_s x_0 x_1 x_2 x_3 1 n)))
 (let ((?x11097 (stack_s x_0 x_1 x_2 x_3 2 n)))
 (or (= ?x11097 ?x1689) (bvsle (bvadd (_ bv60 6) (sc_s 1)) n)))))
 ))
 (let ((?x154 (sc_s 1)))
 (let (($x10660 (= ?x218 ?x154)))
 (let ((?x9078 (used_gas_s x_0 x_1 x_2 x_3 2)))
 (let (($x1022 (= ?x9078 (+ 3 (used_gas_s x_0 x_1 x_2 x_3 1)))))
 (let ((?x7099 (bvadd (_ bv61 6) ?x154)))
 (let ((?x11302 (stack_s x_0 x_1 x_2 x_3 1 ?x7099)))
 (let ((?x3692 (bvadd (_ bv61 6) ?x218)))
 (let ((?x745 (stack_s x_0 x_1 x_2 x_3 2 ?x3692)))
 (let ((?x5347 (bvadd (_ bv63 6) ?x154)))
 (let ((?x5479 (stack_s x_0 x_1 x_2 x_3 1 ?x5347)))
 (let ((?x338 (bvadd (_ bv60 6) ?x154)))
 (let ((?x7225 (stack_s x_0 x_1 x_2 x_3 1 ?x338)))
 (let ((?x5751 (bvadd (_ bv63 6) ?x218)))
 (let ((?x8743 (stack_s x_0 x_1 x_2 x_3 2 ?x5751)))
 (let (($x8223 (= ?x8743 ?x7225)))
 (let (($x189 (exc_halt_s 1)))
 (let (($x10969 (= $x189 (or $x57 (not (bvsle (_ bv0 6) (bvadd (_ bv62 6) ?x72)))))))
 (let (($x2265 (forall ((w (_ BitVec 256)) )(let ((?x8359 (storage_s x_0 x_1 x_2 x_3 0 w)))
 (let ((?x8598 (storage_s x_0 x_1 x_2 x_3 1 w)))
 (= ?x8598 ?x8359))))
 ))
 (let (($x5637 (forall ((n (_ BitVec 6)) )(let ((?x2801 (stack_s x_0 x_1 x_2 x_3 0 n)))
 (let ((?x1689 (stack_s x_0 x_1 x_2 x_3 1 n)))
 (let (($x10921 (= ?x1689 ?x2801)))
 (let ((?x72 (sc_s 0)))
 (let ((?x3000 (bvadd (_ bv62 6) ?x72)))
 (let (($x6124 (bvsle ?x3000 n)))
 (or $x6124 $x10921))))))))
 ))
 (let (($x6515 (= ?x154 ?x72)))
 (let ((?x8966 (used_gas_s x_0 x_1 x_2 x_3 1)))
 (let (($x11610 (= ?x8966 (+ 3 ?x297))))
 (let ((?x8941 (bvadd (_ bv63 6) ?x72)))
 (let ((?x6450 (stack_s x_0 x_1 x_2 x_3 0 ?x8941)))
 (let ((?x10468 (bvadd (_ bv62 6) ?x154)))
 (let ((?x53 (stack_s x_0 x_1 x_2 x_3 1 ?x10468)))
 (let (($x5303 (forall ((w (_ BitVec 256)) )(let ((?x8359 (storage_s x_0 x_1 x_2 x_3 0 w)))
 (= ?x8359 (_ bv0 256))))
 ))
 (let (($x5613 (= ?x297 0)))
 (let (($x7737 (not $x57)))
 (let (($x5215 (= (stack_s x_0 x_1 x_2 x_3 0 (_ bv3 6)) x_3)))
 (let (($x10905 (= (stack_s x_0 x_1 x_2 x_3 0 (_ bv2 6)) x_2)))
 (let (($x4342 (= (stack_s x_0 x_1 x_2 x_3 0 (_ bv1 6)) x_1)))
 (let (($x11460 (= (stack_s x_0 x_1 x_2 x_3 0 (_ bv0 6)) x_0)))
 (let (($x289 (= ?x72 (_ bv4 6))))
 (and $x289 $x11460 $x4342 $x10905 $x5215 $x7737 $x5613 $x5303 (= ?x5479 (stack_s x_0 x_1 x_2 x_3 0 (bvadd (_ bv62 6) ?x72))) (= ?x53 ?x6450) $x11610 $x6515 $x5637 $x2265 $x10969 $x8223 (= (stack_s x_0 x_1 x_2 x_3 2 (bvadd (_ bv60 6) ?x218)) ?x5479) (= ?x745 ?x11302) (= ?x3968 ?x53) $x1022 $x10660 $x5929 $x4959 $x10623 (= ?x10702 ?x745) (= ?x4202 ?x8743) (= ?x854 ?x3968) (= ?x7749 (+ 3 ?x9078)) (= ?x275 ?x218) $x8057 $x552 $x10380 $x6794 (= (stack_s x_0 x_1 x_2 x_3 4 ?x9432) ?x1841) (= (stack_s x_0 x_1 x_2 x_3 4 ?x5144) ?x4202) (= (stack_s x_0 x_1 x_2 x_3 4 ?x11740) ?x854) (= (stack_s x_0 x_1 x_2 x_3 4 ?x1450) ?x10702) $x3688 $x5448 $x8452 $x11290 (= $x7172 (or $x292 $x3442 $x9630)) (= ?x6015 (stack_s x_0 x_1 x_2 x_3 4 (bvadd (_ bv61 6) ?x4305))) (= ?x11811 ?x6407) (= ?x4251 (stack_s x_0 x_1 x_2 x_3 4 (bvadd (_ bv62 6) ?x4305))) $x8934 $x9298 $x10010 $x4454 $x492 (= ?x8062 ?x4251) (= ?x8087 ?x6015) $x7695 $x2838 $x7829 $x3785 $x3884 (= ?x7247 ?x6059) (= (stack_t x_0 x_1 x_2 x_3 1 ?x2945) ?x6059) (= (stack_t x_0 x_1 x_2 x_3 1 ?x7492) ?x11550) $x5119 $x888 $x550 $x9186 $x11457 (= ?x5627 (stack_t x_0 x_1 x_2 x_3 1 (bvadd (_ bv59 6) ?x7154))) (= (stack_t x_0 x_1 x_2 x_3 2 (bvadd (_ bv59 6) ?x2714)) ?x7247) (= ?x4915 (stack_t x_0 x_1 x_2 x_3 1 (bvadd (_ bv60 6) ?x7154))) (= ?x8284 (stack_t x_0 x_1 x_2 x_3 1 (bvadd (_ bv61 6) ?x7154))) (= ?x1736 (stack_t x_0 x_1 x_2 x_3 1 (bvadd (_ bv62 6) ?x7154))) $x2263 $x9350 $x9297 $x9612 $x3493 (= ?x4695 ?x4915) (= (stack_t x_0 x_1 x_2 x_3 3 (bvadd (_ bv60 6) ?x6438)) ?x5627) (= (stack_t x_0 x_1 x_2 x_3 3 (bvadd (_ bv61 6) ?x6438)) ?x8284) (= ?x9665 ?x1736) $x59 $x2845 $x9395 $x5179 $x11441 $x73 $x10611 $x58 $x7629 $x8506 (not (and $x9708 $x22 $x6970 $x5595)))))))))))))))))))))))))))))))))))))))))))))))))))))))))))))))))))))))))))))))))))))))))))))))))))))))))))))))))))))))))))))))))))))))))))))))))))))))))))
 )
(check-sat)
(get-proof)
